20170727 100 0 0 0
20160727 80 0 0 0
20150623 100 0 0 0
20140801 100 0 0 0
20130701 120 0 0 0
20120703 100 0 0 0
20100712 100 1000 0 0
20080714 0 2000 0 0
20070720 100 0 0 0
20060718 150 0 0 0
20051221 0 3500 0 0
20050720 200 0 0 0
20040616 0 2000 0 0
20020716 90 0 0 0
19970609 0 3000 0 0
19960625 60 2000 0 0
19950425 0 3000 0 0
19940530 260 0 0 0
19930809 70 0 0 0
